; benchmark generated from python API
(set-info :status unknown)
(declare-datatypes ((IntState 0)) (((Mk1 (val1 Int)) (Mk2 (val2 Int)))))
 (declare-fun c_main_~z~0 () Int)
(declare-fun c_main_~x~0 () Int)
(declare-fun c_main_~y~0 () Int)
(assert
 (let (($x134 (exists ((|v_main_#t~nondet2_5_st| IntState) (val!121 Int) )(exists ((|v_main_#t~nondet2_6_st| IntState) (val!122 Int) )(let (($x112 (not (= |v_main_#t~nondet2_6_st| (Mk1 val!122)))))
 (let (($x121 (not (= |v_main_#t~nondet2_5_st| (Mk1 val!121)))))
 (and $x121 $x112 (= (+ (* 4194304 (val2 |v_main_#t~nondet2_5_st|)) (* 4194304 (val2 |v_main_#t~nondet2_6_st|))) c_main_~z~0)))))
 )
 ))
 (let (($x31 (exists ((|v_main_#t~nondet0_5_st| IntState) (val!119 Int) )(exists ((|v_main_#t~nondet0_6_st| IntState) (val!120 Int) )(let (($x112 (not (= |v_main_#t~nondet0_6_st| (Mk1 val!120)))))
 (let (($x121 (not (= |v_main_#t~nondet0_5_st| (Mk1 val!119)))))
 (and $x121 $x112 (= c_main_~x~0 (+ (* 1048576 (val2 |v_main_#t~nondet0_5_st|)) (* 1048576 (val2 |v_main_#t~nondet0_6_st|))))))))
 )
 ))
 (let (($x128 (exists ((|v_main_#t~nondet1_6_st| IntState) (val!117 Int) )(exists ((|v_main_#t~nondet1_5_st| IntState) (val!118 Int) )(let (($x112 (not (= |v_main_#t~nondet1_5_st| (Mk1 val!118)))))
 (let (($x121 (not (= |v_main_#t~nondet1_6_st| (Mk1 val!117)))))
 (and $x121 $x112 (= c_main_~y~0 (+ (* 2097152 (val2 |v_main_#t~nondet1_6_st|)) (* 2097152 (val2 |v_main_#t~nondet1_5_st|))))))))
 )
 ))
 (let (($x231 (exists ((|v_main_#t~nondet2_7| Int) )(exists ((|v_main_#t~nondet2_8| Int) )(exists ((|v_main_#t~nondet2_5| Int) )(exists ((|v_main_#t~nondet2_6| Int) )(= (+ (* 4194304 |v_main_#t~nondet2_7|) (* 4194304 |v_main_#t~nondet2_8|) (* 4194304 |v_main_#t~nondet2_5|) (* 4194304 |v_main_#t~nondet2_6|)) c_main_~z~0))
 )
 )
 )
 ))
 (let (($x143 (exists ((|v_main_#t~nondet0_7| Int) )(exists ((|v_main_#t~nondet0_8| Int) )(exists ((|v_main_#t~nondet0_5| Int) )(exists ((|v_main_#t~nondet0_6| Int) )(= (+ (* 1048576 |v_main_#t~nondet0_7|) (* 1048576 |v_main_#t~nondet0_8|) (* 1048576 |v_main_#t~nondet0_5|) (* 1048576 |v_main_#t~nondet0_6|)) c_main_~x~0))
 )
 )
 )
 ))
 (let (($x81 (exists ((|v_main_#t~nondet1_8| Int) )(exists ((|v_main_#t~nondet1_6| Int) )(exists ((|v_main_#t~nondet1_7| Int) )(exists ((|v_main_#t~nondet1_5| Int) )(= (+ (* 2097152 |v_main_#t~nondet1_8|) (* 2097152 |v_main_#t~nondet1_6|) (* 2097152 |v_main_#t~nondet1_7|) (* 2097152 |v_main_#t~nondet1_5|)) c_main_~y~0))
 )
 )
 )
 ))
 (and (and $x81 $x143 $x231) (not (and $x128 $x31 $x134))))))))))
(check-sat)
